Version identifier: 22.1.1.0 | 2022-11-28 | 9160aff4d
CPXPARAM_Threads                                 1
CPXPARAM_MIP_Strategy_VariableSelect             3
CPXPARAM_TimeLimit                               599.99876423800004
Tried aggregator 1 time.
MIP Presolve eliminated 409 rows and 796 columns.
MIP Presolve modified 1 coefficients.
Reduced MIP has 797 rows, 1592 columns, and 10059 nonzeros.
Reduced MIP has 1592 binaries, 0 generals, 0 SOSs, and 0 indicators.
Presolve time = 0.01 sec. (7.18 ticks)
Found incumbent of value 0.000000 after 0.02 sec. (19.69 ticks)

Root node processing (before b&c):
  Real time             =    0.02 sec. (19.77 ticks)
Sequential b&c:
  Real time             =    0.00 sec. (0.00 ticks)
                          ------------
Total (root+branch&cut) =    0.02 sec. (19.77 ticks)
Primal:	199
Dual:	199
Status:	Optimal
Time:	0.0264164
Sequence:
	0
	4
	5
	1
	4
	0
	5
	9
	5
	5
	10
	9
	0
	1
	9
	1
	1
	9
	5
	9
	5
	5
	9
	0
	9
	5
	10
	10
	9
	5
	4
	1
	1
	1
	9
	10
	4
	5
	1
	0
	9
	5
	0
	5
	9
	0
	5
	9
	1
	0
	9
	5
	4
	0
	9
	4
	5
	0
	5
	9
	1
	1
	4
	0
	4
	1
	5
	9
	5
	5
	9
	5
	5
	0
	9
	5
	5
	3
	9
	10
	5
	0
	4
	5
	1
	1
	9
	1
	1
	9
	10
	5
	1
	4
	10
	1
	0
	4
	1
	9
	5
	0
	1
	9
	9
	5
	4
	9
	0
	5
	9
	5
	0
	9
	1
	9
	8
	10
	9
	4
	5
	0
	5
	4
	9
	5
	0
	5
	9
	4
	1
	1
	4
	4
	9
	1
	9
	1
	5
	9
	9
	1
	4
	9
	9
	10
	10
	10
	4
	1
	0
	1
	9
	5
	1
	4
	10
	4
	5
	1
	4
	9
	4
	0
	5
	5
	9
	0
	5
	4
	10
	0
	1
	9
	4
	4
	0
	9
	5
	0
	4
	9
	0
	5
	9
	4
	5
	0
	9
	4
	4
	1
	4
	9
	4
	10
	10
	9
	10
